model.mps
NAME graspcclb
ROWS
 N  OBJ
 G  C40_1   
 G  C40_2   
 G  C40_3   
 G  C40_4   
 G  C40_5   
 G  C40_6   
 G  C40_7   
 G  C40_8   
 G  C40_9   
 G  C40_10  
 G  C40_11  
 G  C40_12  
 G  C40_13  
 G  C40_14  
 G  C40_15  
 G  C40_16  
 G  C40_17  
 G  C40_18  
 G  C40_19  
 G  C40_20  
 G  C41_1   
 G  C41_2   
 G  C41_3   
 G  C41_4   
 G  C41_5   
 G  C41_6   
 G  C41_7   
 G  C41_8   
 G  C41_9   
 G  C41_10  
 G  C41_11  
 G  C41_12  
 G  C41_13  
 G  C41_14  
 G  C41_15  
 G  C41_16  
 G  C41_17  
 G  C41_18  
 G  C41_19  
 G  C41_20  
 G  C42_1   
 G  C42_2   
 L  C44_1   
 L  C44_2   
 L  C44_3   
 L  C44_4   
 L  C44_5   
 L  C45_1   
 L  C45_2   
 L  C45_3   
 L  C45_4   
 L  C45_5   
 L  C45_6   
 L  C45_7   
 L  C45_8   
 L  C45_9   
 L  C45_10  
 L  C46_1   
 L  C46_2   
 L  C46_3   
 L  C46_4   
 L  C46_5   
 L  C47_1   
 L  C47_2   
 L  C47_3   
 L  C47_4   
 L  C47_5   
 L  C47_6   
 L  C47_7   
 L  C47_8   
 L  C47_9   
 L  C47_10  
 G  C48_1   
 G  C48_2   
 G  C48_3   
 G  C48_4   
 G  C48_5   
 G  C48_6   
 G  C48_7   
 G  C48_8   
 G  C48_9   
 G  C48_10  
 G  C49_1   
 G  C49_2   
 L  C50     
COLUMNS
    MARKER    'MARKER'                 'INTORG'
    x_0_0_1_0_0  C40_1     -10
    x_0_0_1_0_0  C40_11    10
    x_0_0_1_0_0  C41_1     -10
    x_0_0_1_0_0  C41_11    10
    x_0_0_1_0_0  C42_1     100
    x_0_0_1_0_0  C44_1     -1
    x_0_0_1_0_0  C45_1     1
    x_0_0_1_0_0  C46_1     1
    x_0_0_1_0_0  C47_1     1
    x_0_0_1_0_0  C48_1     -1
    x_0_0_1_0_1  C40_2     -10
    x_0_0_1_0_1  C40_12    10
    x_0_0_1_0_1  C41_2     -10
    x_0_0_1_0_1  C41_12    10
    x_0_0_1_0_1  C42_2     100
    x_0_0_1_0_1  C44_1     -1
    x_0_0_1_0_1  C45_1     1
    x_0_0_1_0_1  C45_2     1
    x_0_0_1_0_1  C45_3     1
    x_0_0_1_0_1  C45_4     1
    x_0_0_1_0_1  C45_5     1
    x_0_0_1_0_1  C45_6     1
    x_0_0_1_0_1  C45_7     1
    x_0_0_1_0_1  C45_8     1
    x_0_0_1_0_1  C45_9     1
    x_0_0_1_0_1  C45_10    1
    x_0_0_1_0_1  C46_1     1
    x_0_0_1_0_1  C47_2     1
    x_0_0_1_0_1  C48_1     -1
    x_0_0_2_0_0  C40_3     -10
    x_0_0_2_0_0  C40_13    10
    x_0_0_2_0_0  C41_3     -10
    x_0_0_2_0_0  C41_13    10
    x_0_0_2_0_0  C42_1     100
    x_0_0_2_0_0  C44_2     -1
    x_0_0_2_0_0  C45_2     1
    x_0_0_2_0_0  C46_2     1
    x_0_0_2_0_0  C47_3     1
    x_0_0_2_0_0  C48_2     -2
    x_0_0_2_0_1  C40_4     -10
    x_0_0_2_0_1  C40_14    10
    x_0_0_2_0_1  C41_4     -10
    x_0_0_2_0_1  C41_14    10
    x_0_0_2_0_1  C42_2     100
    x_0_0_2_0_1  C44_2     -1
    x_0_0_2_0_1  C45_2     1
    x_0_0_2_0_1  C45_3     1
    x_0_0_2_0_1  C45_4     1
    x_0_0_2_0_1  C45_5     1
    x_0_0_2_0_1  C45_7     1
    x_0_0_2_0_1  C45_8     1
    x_0_0_2_0_1  C45_9     1
    x_0_0_2_0_1  C45_10    1
    x_0_0_2_0_1  C46_2     1
    x_0_0_2_0_1  C47_4     1
    x_0_0_2_0_1  C48_2     -2
    x_0_0_3_0_0  C40_5     -10
    x_0_0_3_0_0  C40_15    10
    x_0_0_3_0_0  C41_5     -10
    x_0_0_3_0_0  C41_15    10
    x_0_0_3_0_0  C42_1     100
    x_0_0_3_0_0  C44_3     -1
    x_0_0_3_0_0  C45_3     1
    x_0_0_3_0_0  C46_3     1
    x_0_0_3_0_0  C47_5     1
    x_0_0_3_0_0  C48_3     -3
    x_0_0_3_0_1  C40_6     -10
    x_0_0_3_0_1  C40_16    10
    x_0_0_3_0_1  C41_6     -10
    x_0_0_3_0_1  C41_16    10
    x_0_0_3_0_1  C42_2     100
    x_0_0_3_0_1  C44_3     -1
    x_0_0_3_0_1  C45_3     1
    x_0_0_3_0_1  C45_4     1
    x_0_0_3_0_1  C45_5     1
    x_0_0_3_0_1  C45_8     1
    x_0_0_3_0_1  C45_9     1
    x_0_0_3_0_1  C45_10    1
    x_0_0_3_0_1  C46_3     1
    x_0_0_3_0_1  C47_6     1
    x_0_0_3_0_1  C48_3     -3
    x_0_0_4_0_0  C40_7     -10
    x_0_0_4_0_0  C40_17    10
    x_0_0_4_0_0  C41_7     -10
    x_0_0_4_0_0  C41_17    10
    x_0_0_4_0_0  C42_1     100
    x_0_0_4_0_0  C44_4     -1
    x_0_0_4_0_0  C45_4     1
    x_0_0_4_0_0  C46_4     1
    x_0_0_4_0_0  C47_7     1
    x_0_0_4_0_0  C48_4     -4
    x_0_0_4_0_1  C40_8     -10
    x_0_0_4_0_1  C40_18    10
    x_0_0_4_0_1  C41_8     -10
    x_0_0_4_0_1  C41_18    10
    x_0_0_4_0_1  C42_2     100
    x_0_0_4_0_1  C44_4     -1
    x_0_0_4_0_1  C45_4     1
    x_0_0_4_0_1  C45_5     1
    x_0_0_4_0_1  C45_9     1
    x_0_0_4_0_1  C45_10    1
    x_0_0_4_0_1  C46_4     1
    x_0_0_4_0_1  C47_8     1
    x_0_0_4_0_1  C48_4     -4
    x_0_0_5_0_0  C40_9     -10
    x_0_0_5_0_0  C40_19    10
    x_0_0_5_0_0  C41_9     -10
    x_0_0_5_0_0  C41_19    10
    x_0_0_5_0_0  C42_1     100
    x_0_0_5_0_0  C44_5     -1
    x_0_0_5_0_0  C45_5     1
    x_0_0_5_0_0  C46_5     1
    x_0_0_5_0_0  C47_9     1
    x_0_0_5_0_0  C48_5     -5
    x_0_0_5_0_1  C40_10    -10
    x_0_0_5_0_1  C40_20    10
    x_0_0_5_0_1  C41_10    -10
    x_0_0_5_0_1  C41_20    10
    x_0_0_5_0_1  C42_2     100
    x_0_0_5_0_1  C44_5     -1
    x_0_0_5_0_1  C45_5     1
    x_0_0_5_0_1  C45_10    1
    x_0_0_5_0_1  C46_5     1
    x_0_0_5_0_1  C47_10    1
    x_0_0_5_0_1  C48_5     -5
    x_0_1_1_0_0  C40_1     10
    x_0_1_1_0_0  C40_11    -10
    x_0_1_1_0_0  C41_1     10
    x_0_1_1_0_0  C41_11    -10
    x_0_1_1_0_0  C42_1     100
    x_0_1_1_0_0  C44_1     1
    x_0_1_1_0_0  C45_6     1
    x_0_1_1_0_0  C46_1     1
    x_0_1_1_0_0  C47_1     1
    x_0_1_1_0_0  C48_6     -1
    x_0_1_1_0_1  C40_2     10
    x_0_1_1_0_1  C40_12    -10
    x_0_1_1_0_1  C41_2     10
    x_0_1_1_0_1  C41_12    -10
    x_0_1_1_0_1  C42_2     100
    x_0_1_1_0_1  C44_1     1
    x_0_1_1_0_1  C45_1     1
    x_0_1_1_0_1  C45_2     1
    x_0_1_1_0_1  C45_3     1
    x_0_1_1_0_1  C45_4     1
    x_0_1_1_0_1  C45_5     1
    x_0_1_1_0_1  C45_6     1
    x_0_1_1_0_1  C45_7     1
    x_0_1_1_0_1  C45_8     1
    x_0_1_1_0_1  C45_9     1
    x_0_1_1_0_1  C45_10    1
    x_0_1_1_0_1  C46_1     1
    x_0_1_1_0_1  C47_2     1
    x_0_1_1_0_1  C48_6     -1
    x_0_1_2_0_0  C40_3     10
    x_0_1_2_0_0  C40_13    -10
    x_0_1_2_0_0  C41_3     10
    x_0_1_2_0_0  C41_13    -10
    x_0_1_2_0_0  C42_1     100
    x_0_1_2_0_0  C44_2     1
    x_0_1_2_0_0  C45_7     1
    x_0_1_2_0_0  C46_2     1
    x_0_1_2_0_0  C47_3     1
    x_0_1_2_0_0  C48_7     -2
    x_0_1_2_0_1  C40_4     10
    x_0_1_2_0_1  C40_14    -10
    x_0_1_2_0_1  C41_4     10
    x_0_1_2_0_1  C41_14    -10
    x_0_1_2_0_1  C42_2     100
    x_0_1_2_0_1  C44_2     1
    x_0_1_2_0_1  C45_2     1
    x_0_1_2_0_1  C45_3     1
    x_0_1_2_0_1  C45_4     1
    x_0_1_2_0_1  C45_5     1
    x_0_1_2_0_1  C45_7     1
    x_0_1_2_0_1  C45_8     1
    x_0_1_2_0_1  C45_9     1
    x_0_1_2_0_1  C45_10    1
    x_0_1_2_0_1  C46_2     1
    x_0_1_2_0_1  C47_4     1
    x_0_1_2_0_1  C48_7     -2
    x_0_1_3_0_0  C40_5     10
    x_0_1_3_0_0  C40_15    -10
    x_0_1_3_0_0  C41_5     10
    x_0_1_3_0_0  C41_15    -10
    x_0_1_3_0_0  C42_1     100
    x_0_1_3_0_0  C44_3     1
    x_0_1_3_0_0  C45_8     1
    x_0_1_3_0_0  C46_3     1
    x_0_1_3_0_0  C47_5     1
    x_0_1_3_0_0  C48_8     -3
    x_0_1_3_0_1  C40_6     10
    x_0_1_3_0_1  C40_16    -10
    x_0_1_3_0_1  C41_6     10
    x_0_1_3_0_1  C41_16    -10
    x_0_1_3_0_1  C42_2     100
    x_0_1_3_0_1  C44_3     1
    x_0_1_3_0_1  C45_3     1
    x_0_1_3_0_1  C45_4     1
    x_0_1_3_0_1  C45_5     1
    x_0_1_3_0_1  C45_8     1
    x_0_1_3_0_1  C45_9     1
    x_0_1_3_0_1  C45_10    1
    x_0_1_3_0_1  C46_3     1
    x_0_1_3_0_1  C47_6     1
    x_0_1_3_0_1  C48_8     -3
    x_0_1_4_0_0  C40_7     10
    x_0_1_4_0_0  C40_17    -10
    x_0_1_4_0_0  C41_7     10
    x_0_1_4_0_0  C41_17    -10
    x_0_1_4_0_0  C42_1     100
    x_0_1_4_0_0  C44_4     1
    x_0_1_4_0_0  C45_9     1
    x_0_1_4_0_0  C46_4     1
    x_0_1_4_0_0  C47_7     1
    x_0_1_4_0_0  C48_9     -4
    x_0_1_4_0_1  C40_8     10
    x_0_1_4_0_1  C40_18    -10
    x_0_1_4_0_1  C41_8     10
    x_0_1_4_0_1  C41_18    -10
    x_0_1_4_0_1  C42_2     100
    x_0_1_4_0_1  C44_4     1
    x_0_1_4_0_1  C45_4     1
    x_0_1_4_0_1  C45_5     1
    x_0_1_4_0_1  C45_9     1
    x_0_1_4_0_1  C45_10    1
    x_0_1_4_0_1  C46_4     1
    x_0_1_4_0_1  C47_8     1
    x_0_1_4_0_1  C48_9     -4
    x_0_1_5_0_0  C40_9     10
    x_0_1_5_0_0  C40_19    -10
    x_0_1_5_0_0  C41_9     10
    x_0_1_5_0_0  C41_19    -10
    x_0_1_5_0_0  C42_1     100
    x_0_1_5_0_0  C44_5     1
    x_0_1_5_0_0  C45_10    1
    x_0_1_5_0_0  C46_5     1
    x_0_1_5_0_0  C47_9     1
    x_0_1_5_0_0  C48_10    -5
    x_0_1_5_0_1  C40_10    10
    x_0_1_5_0_1  C40_20    -10
    x_0_1_5_0_1  C41_10    10
    x_0_1_5_0_1  C41_20    -10
    x_0_1_5_0_1  C42_2     100
    x_0_1_5_0_1  C44_5     1
    x_0_1_5_0_1  C45_5     1
    x_0_1_5_0_1  C45_10    1
    x_0_1_5_0_1  C46_5     1
    x_0_1_5_0_1  C47_10    1
    x_0_1_5_0_1  C48_10    -5
    z_0_0     OBJ       0.0005
    z_0_0     C48_1     1
    z_0_0     C48_2     1
    z_0_0     C48_3     1
    z_0_0     C48_4     1
    z_0_0     C48_5     1
    z_0_0     C49_1     -1
    z_0_0     C50       1
    z_0_1     OBJ       0.0005
    z_0_1     C48_6     1
    z_0_1     C48_7     1
    z_0_1     C48_8     1
    z_0_1     C48_9     1
    z_0_1     C48_10    1
    z_0_1     C49_2     -1
    z_0_1     C50       1
    z         OBJ       8.3333333333333329e-02
    z         C49_1     1
    z         C49_2     1
    MARKER    'MARKER'                 'INTEND'
RHS
    RHS1      C42_1     220
    RHS1      C42_2     20
    RHS1      C45_1     1
    RHS1      C45_2     1
    RHS1      C45_3     1
    RHS1      C45_4     1
    RHS1      C45_5     1
    RHS1      C45_6     1
    RHS1      C45_7     1
    RHS1      C45_8     1
    RHS1      C45_9     1
    RHS1      C45_10    1
    RHS1      C46_1     2
    RHS1      C46_2     2
    RHS1      C46_3     2
    RHS1      C46_4     2
    RHS1      C46_5     2
    RHS1      C47_1     2
    RHS1      C47_2     2
    RHS1      C47_3     2
    RHS1      C47_4     2
    RHS1      C47_5     2
    RHS1      C47_6     2
    RHS1      C47_7     2
    RHS1      C47_8     2
    RHS1      C47_9     2
    RHS1      C47_10    2
    RHS1      C50       1000
BOUNDS
 BV BND1      x_0_0_1_0_0
 BV BND1      x_0_0_1_0_1
 BV BND1      x_0_0_2_0_0
 BV BND1      x_0_0_2_0_1
 BV BND1      x_0_0_3_0_0
 BV BND1      x_0_0_3_0_1
 BV BND1      x_0_0_4_0_0
 BV BND1      x_0_0_4_0_1
 BV BND1      x_0_0_5_0_0
 BV BND1      x_0_0_5_0_1
 BV BND1      x_0_1_1_0_0
 BV BND1      x_0_1_1_0_1
 BV BND1      x_0_1_2_0_0
 BV BND1      x_0_1_2_0_1
 BV BND1      x_0_1_3_0_0
 BV BND1      x_0_1_3_0_1
 BV BND1      x_0_1_4_0_0
 BV BND1      x_0_1_4_0_1
 BV BND1      x_0_1_5_0_0
 BV BND1      x_0_1_5_0_1
 LI BND1      z_0_0     0
 LI BND1      z_0_1     0
 LI BND1      z         0
ENDATA
